40 120
4 5 6 12 17 26 32 36 37
2 6
1 6 16 21 23 27 29
7 12 19 29 35
0 5 8 18 19 24 26 31 38
0 4 17
0 1 2 8 23 29
3 13 14 19 26 33 35 37
4 6 12 14 21 29
12 13 21 24 27 32 33 36 37
11 34
10 16 17 22 25 35
0 3 8 9 18 29 32 36
7 9 16 32 39
7 8 25 36

2 11 13 18 25 27 33
0 5 11 21 28 30 38
4 12 16 37
3 4 7 29 38
21 24 32 33
2 8 9 17 20 23 26 31 32 34 37
11 24 26 32 33 34 38
2 6 21 38
4 9 20 22 27 28
11 14 16 28
0 4 7 21 22 27 32
2 9 16 24 26 29 36 37 38 39
17 24 25 30 31
2 3 6 8 12 19 27 30 32
17 28 29 32 36 39
4 21 28 37
0 9 12 13 20 21 22 26 29 30 37
7 9 16 20 22
10 21 22 36 37 39
3 7 11
0 9 12 14 27 30 34
0 7 9 18 21 27 31 32 34
4 17 19 22 23 27
13 27 30 34
